
;this file is automatically generated: Fri Jan 03 16:26:56 GMT 2020

;declarations generated

(declare-fun oclExcludes ( Int Int) Bool)
(declare-fun Cardinality ( Int) Int)
(declare-fun type_ee975af9_9c3f_4e15_8a96_2b3605bb8451_Class4 ( Int) Bool)
(declare-fun class4_Class4IntAttr1 ( Int) Int)
(declare-fun oclSelect ( Int Bool) Int)
(declare-fun Enum0 ( Int) Int)
(declare-fun Enum1 ( Int) Int)
(declare-fun Enum2 ( Int) Int)
(declare-fun container_ ( Int) Int)
(declare-fun oclIncludes ( Int Int) Bool)
(declare-fun ObjAt ( Int Int) Int)
(declare-fun obj_bc4e5d6f_08ed_47b9_be47_e6decd9cdce7 ( Int) Int)

;formula(s) generated
(assert (forall ((p Int)) (=> ( type_ee975af9_9c3f_4e15_8a96_2b3605bb8451_Class4 p )  (and (>= ( Enum2 ( obj_bc4e5d6f_08ed_47b9_be47_e6decd9cdce7 p )  )  0) (<= ( Enum2 ( obj_bc4e5d6f_08ed_47b9_be47_e6decd9cdce7 p )  )  6)))))
(assert (! (forall ((v Int)) (=> ( type_ee975af9_9c3f_4e15_8a96_2b3605bb8451_Class4 v )  (or (< ( class4_Class4IntAttr1 ( obj_bc4e5d6f_08ed_47b9_be47_e6decd9cdce7 v )  )  14) (or (forall ((v Int)) (=> ( type_ee975af9_9c3f_4e15_8a96_2b3605bb8451_Class4 v )  (not (= ( Enum2 ( obj_bc4e5d6f_08ed_47b9_be47_e6decd9cdce7 v )  )  1) ))) (forall ((v Int)) (=> ( type_ee975af9_9c3f_4e15_8a96_2b3605bb8451_Class4 v )  (= ( Enum2 ( obj_bc4e5d6f_08ed_47b9_be47_e6decd9cdce7 v )  )  2))))))):named l0))
(assert (! (and (forall ((v Int)) (=> ( type_ee975af9_9c3f_4e15_8a96_2b3605bb8451_Class4 v )  (= ( class4_Class4IntAttr1 ( obj_bc4e5d6f_08ed_47b9_be47_e6decd9cdce7 v )  )  8))) (forall ((v Int)) (=> ( type_ee975af9_9c3f_4e15_8a96_2b3605bb8451_Class4 v )  (< ( class4_Class4IntAttr1 ( obj_bc4e5d6f_08ed_47b9_be47_e6decd9cdce7 v )  )  18)))):named l1))
(assert (exists ((o Int)) ( type_ee975af9_9c3f_4e15_8a96_2b3605bb8451_Class4 ( obj_bc4e5d6f_08ed_47b9_be47_e6decd9cdce7 o )  ) ))

 ;end of formula 